13
0 70 42 57 93 55 21 35 50 30 70 46 57
70 0 14 19 35 38 73 57 59 59 60 39 63
42 14 0 34 47 30 14 9 37 96 56 71 50
57 19 34 0 53 67 24 51 74 10 50 20 42
93 35 47 53 0 23 40 79 43 44 66 62 46
55 38 30 67 23 0 36 38 37 39 53 92 22
21 73 14 24 40 36 0 58 61 32 42 47 47
35 57 9 51 79 38 58 0 54 80 30 54 78
50 59 37 74 43 37 61 54 0 51 50 73 33
30 59 96 10 44 39 32 80 51 0 54 80 25
70 60 56 50 66 53 42 30 50 54 0 64 37
46 39 71 20 62 92 47 54 73 80 64 0 47
57 63 50 42 46 22 47 78 33 25 37 47 0
